; DUP1 CALLER SWAP1 POP => CALLER
(set-option :produce-proofs true)
; 
(set-info :status unknown)
(declare-fun storage_t ((_ BitVec 256) (_ BitVec 256) Int (_ BitVec 256)) (_ BitVec 256))
(declare-fun storage_s ((_ BitVec 256) (_ BitVec 256) Int (_ BitVec 256)) (_ BitVec 256))
(declare-fun exc_halt_t (Int) Bool)
(declare-fun exc_halt_s (Int) Bool)
(declare-fun sc_t (Int) (_ BitVec 6))
(declare-fun stack_t ((_ BitVec 256) (_ BitVec 256) Int (_ BitVec 6)) (_ BitVec 256))
(declare-fun stack_s ((_ BitVec 256) (_ BitVec 256) Int (_ BitVec 6)) (_ BitVec 256))
(declare-fun sc_s (Int) (_ BitVec 6))
(declare-fun used_gas_t ((_ BitVec 256) (_ BitVec 256) Int) Int)
(declare-fun used_gas_s ((_ BitVec 256) (_ BitVec 256) Int) Int)
(assert
 (exists ((x_0 (_ BitVec 256)) (x_CALLER (_ BitVec 256)) )(let (($x3009 (forall ((w (_ BitVec 256)) )(let ((?x9972 (storage_t x_0 x_CALLER 1 w)))
 (let ((?x2015 (storage_s x_0 x_CALLER 4 w)))
 (= ?x2015 ?x9972))))
 ))
 (let (($x3194 (exc_halt_t 1)))
 (let (($x9175 (exc_halt_s 4)))
 (let (($x1530 (= $x9175 $x3194)))
 (let (($x4774 (forall ((n (_ BitVec 6)) )(let ((?x6855 (sc_t 1)))
 (let (($x9995 (bvsle ?x6855 n)))
 (let ((?x7071 (stack_t x_0 x_CALLER 1 n)))
 (let ((?x9515 (stack_s x_0 x_CALLER 4 n)))
 (let (($x5879 (= ?x9515 ?x7071)))
 (or $x5879 $x9995)))))))
 ))
 (let ((?x6855 (sc_t 1)))
 (let ((?x9433 (sc_s 4)))
 (let (($x1027 (= ?x9433 ?x6855)))
 (let ((?x5522 (used_gas_t x_0 x_CALLER 0)))
 (let ((?x5247 (used_gas_s x_0 x_CALLER 0)))
 (let (($x10489 (= ?x5247 ?x5522)))
 (let (($x9238 (forall ((w (_ BitVec 256)) )(let ((?x10337 (storage_t x_0 x_CALLER 0 w)))
 (let ((?x6787 (storage_s x_0 x_CALLER 0 w)))
 (= ?x6787 ?x10337))))
 ))
 (let (($x56 (exc_halt_t 0)))
 (let (($x57 (exc_halt_s 0)))
 (let (($x58 (= $x57 $x56)))
 (let (($x11545 (forall ((n (_ BitVec 6)) )(let ((?x6737 (stack_t x_0 x_CALLER 0 n)))
 (let ((?x141 (stack_s x_0 x_CALLER 0 n)))
 (let (($x7483 (= ?x141 ?x6737)))
 (let ((?x63 (sc_t 0)))
 (let (($x5202 (bvsle ?x63 n)))
 (or $x5202 $x7483)))))))
 ))
 (let ((?x63 (sc_t 0)))
 (let ((?x72 (sc_s 0)))
 (let (($x73 (= ?x72 ?x63)))
 (let (($x6965 (= $x3194 (or $x56 (not (= ((_ extract 6 6) (bvadd (_ bv1 7) (concat (_ bv0 1) ?x63))) (_ bv0 1)))))))
 (let (($x4607 (forall ((w (_ BitVec 256)) )(let ((?x10337 (storage_t x_0 x_CALLER 0 w)))
 (let ((?x9972 (storage_t x_0 x_CALLER 1 w)))
 (= ?x9972 ?x10337))))
 ))
 (let (($x10556 (forall ((n (_ BitVec 6)) )(let ((?x6737 (stack_t x_0 x_CALLER 0 n)))
 (let ((?x7071 (stack_t x_0 x_CALLER 1 n)))
 (let (($x8665 (= ?x7071 ?x6737)))
 (let ((?x63 (sc_t 0)))
 (let (($x5202 (bvsle ?x63 n)))
 (or $x5202 $x8665)))))))
 ))
 (let (($x3505 (= ?x6855 (bvadd (_ bv1 6) ?x63))))
 (let ((?x4657 (used_gas_t x_0 x_CALLER 1)))
 (let (($x8859 (= ?x4657 (+ 2 ?x5522))))
 (let (($x7082 (= $x9175 (or (exc_halt_s 3) (not (bvsle (_ bv0 6) (bvadd (_ bv63 6) (sc_s 3))))))))
 (let (($x11691 (forall ((w (_ BitVec 256)) )(let ((?x8643 (storage_s x_0 x_CALLER 3 w)))
 (let ((?x2015 (storage_s x_0 x_CALLER 4 w)))
 (= ?x2015 ?x8643))))
 ))
 (let (($x5687 (forall ((n (_ BitVec 6)) )(let ((?x3851 (sc_s 3)))
 (let ((?x6454 (bvadd (_ bv63 6) ?x3851)))
 (let (($x7852 (bvsle ?x6454 n)))
 (or $x7852 (= (stack_s x_0 x_CALLER 4 n) (stack_s x_0 x_CALLER 3 n)))))))
 ))
 (let (($x1440 (= (used_gas_s x_0 x_CALLER 4) (+ 2 (used_gas_s x_0 x_CALLER 3)))))
 (let (($x8103 (exc_halt_s 3)))
 (let (($x12003 (= $x8103 (or (exc_halt_s 2) (not (bvsle (_ bv0 6) (bvadd (_ bv62 6) (sc_s 2))))))))
 (let (($x329 (forall ((w (_ BitVec 256)) )(let ((?x828 (storage_s x_0 x_CALLER 2 w)))
 (let ((?x8643 (storage_s x_0 x_CALLER 3 w)))
 (= ?x8643 ?x828))))
 ))
 (let (($x9551 (forall ((n (_ BitVec 6)) )(let ((?x915 (stack_s x_0 x_CALLER 2 n)))
 (let ((?x8115 (stack_s x_0 x_CALLER 3 n)))
 (let (($x9775 (= ?x8115 ?x915)))
 (let ((?x2272 (sc_s 2)))
 (let ((?x10094 (bvadd (_ bv62 6) ?x2272)))
 (let (($x3308 (bvsle ?x10094 n)))
 (or $x3308 $x9775))))))))
 ))
 (let ((?x2272 (sc_s 2)))
 (let ((?x3851 (sc_s 3)))
 (let (($x9637 (= ?x3851 ?x2272)))
 (let ((?x4556 (used_gas_s x_0 x_CALLER 3)))
 (let (($x9549 (= ?x4556 (+ 3 (used_gas_s x_0 x_CALLER 2)))))
 (let ((?x11939 (bvadd (_ bv63 6) ?x2272)))
 (let ((?x3980 (stack_s x_0 x_CALLER 2 ?x11939)))
 (let (($x1671 (= (stack_s x_0 x_CALLER 3 (bvadd (_ bv62 6) ?x3851)) ?x3980)))
 (let (($x2398 (= (stack_s x_0 x_CALLER 3 (bvadd (_ bv63 6) ?x3851)) (stack_s x_0 x_CALLER 2 (bvadd (_ bv62 6) ?x2272)))))
 (let (($x7458 (not (= ((_ extract 6 6) (bvadd (_ bv1 7) (concat (_ bv0 1) (sc_s 1)))) (_ bv0 1)))))
 (let (($x8780 (exc_halt_s 1)))
 (let (($x10052 (exc_halt_s 2)))
 (let (($x10354 (= $x10052 (or $x8780 $x7458))))
 (let (($x6196 (forall ((w (_ BitVec 256)) )(let ((?x571 (storage_s x_0 x_CALLER 1 w)))
 (let ((?x828 (storage_s x_0 x_CALLER 2 w)))
 (= ?x828 ?x571))))
 ))
 (let (($x4372 (forall ((n (_ BitVec 6)) )(let ((?x154 (sc_s 1)))
 (let (($x5171 (bvsle ?x154 n)))
 (let ((?x1723 (stack_s x_0 x_CALLER 1 n)))
 (let ((?x915 (stack_s x_0 x_CALLER 2 n)))
 (let (($x1681 (= ?x915 ?x1723)))
 (or $x1681 $x5171)))))))
 ))
 (let (($x773 (= ?x2272 (bvadd (_ bv1 6) (sc_s 1)))))
 (let ((?x7579 (used_gas_s x_0 x_CALLER 2)))
 (let (($x2566 (= ?x7579 (+ 2 (used_gas_s x_0 x_CALLER 1)))))
 (let (($x6190 (not (= ((_ extract 6 6) (bvadd (_ bv1 7) (concat (_ bv0 1) ?x72))) (_ bv0 1)))))
 (let (($x6906 (= $x8780 (or $x57 (not (bvsle (_ bv0 6) (bvadd (_ bv63 6) ?x72))) $x6190))))
 (let (($x9863 (forall ((w (_ BitVec 256)) )(let ((?x6787 (storage_s x_0 x_CALLER 0 w)))
 (let ((?x571 (storage_s x_0 x_CALLER 1 w)))
 (= ?x571 ?x6787))))
 ))
 (let (($x1217 (forall ((n (_ BitVec 6)) )(let ((?x72 (sc_s 0)))
 (let ((?x9361 (bvadd (_ bv63 6) ?x72)))
 (let (($x4443 (bvsle ?x9361 n)))
 (let ((?x141 (stack_s x_0 x_CALLER 0 n)))
 (let ((?x1723 (stack_s x_0 x_CALLER 1 n)))
 (let (($x2103 (= ?x1723 ?x141)))
 (or $x2103 $x4443))))))))
 ))
 (let ((?x154 (sc_s 1)))
 (let (($x2608 (= ?x154 (bvadd (_ bv1 6) ?x72))))
 (let ((?x8055 (used_gas_s x_0 x_CALLER 1)))
 (let (($x9017 (= ?x8055 (+ 3 ?x5247))))
 (let ((?x9361 (bvadd (_ bv63 6) ?x72)))
 (let ((?x10015 (stack_s x_0 x_CALLER 0 ?x9361)))
 (let (($x47 (forall ((w (_ BitVec 256)) )(let ((?x6787 (storage_s x_0 x_CALLER 0 w)))
 (= ?x6787 (_ bv0 256))))
 ))
 (let (($x9362 (= ?x5247 0)))
 (let (($x3623 (not $x57)))
 (let (($x1719 (= (stack_s x_0 x_CALLER 0 (_ bv0 6)) x_0)))
 (let (($x7461 (= ?x72 (_ bv1 6))))
 (and $x7461 $x1719 $x3623 $x9362 $x47 (= (stack_s x_0 x_CALLER 1 (bvadd (_ bv63 6) ?x154)) ?x10015) (= (stack_s x_0 x_CALLER 1 ?x9361) ?x10015) $x9017 $x2608 $x1217 $x9863 $x6906 (= (stack_s x_0 x_CALLER 2 ?x154) x_CALLER) $x2566 $x773 $x4372 $x6196 $x10354 $x2398 $x1671 $x9549 $x9637 $x9551 $x329 $x12003 $x1440 (= ?x9433 (bvadd (_ bv63 6) ?x3851)) $x5687 $x11691 $x7082 (= (stack_t x_0 x_CALLER 1 ?x63) x_CALLER) $x8859 $x3505 $x10556 $x4607 $x6965 $x73 $x11545 $x58 $x9238 $x10489 (not (and $x1027 $x4774 $x1530 $x3009))))))))))))))))))))))))))))))))))))))))))))))))))))))))))))))))))))))
 )
(check-sat)
(get-proof)
